15
4 0 3
4 1 10
4 2 3
6 2 14
6 4 2
7 0 13
7 1 9
7 2 3
7 3 14
7 5 3
8 0 8
8 1 13
8 2 12
8 4 8
8 5 8
8 6 6
9 0 4
9 1 2
9 5 11
9 6 12
9 7 13
9 8 3
10 0 4
10 2 2
10 3 2
10 6 8
10 7 8
11 0 10
11 1 10
11 6 8
11 8 13
11 10 6
12 1 1
12 2 2
12 3 2
12 5 1
12 7 2
12 8 9
12 9 8
13 3 13
13 4 13
13 5 14
13 6 6
13 7 6
13 9 2
13 12 13
14 1 9
14 2 3
14 4 4
14 5 6
14 7 3
14 9 8
14 10 4
14 11 3
14 12 7
